% Auto-generated by scripts/generate_dzn.py
% problem_type   = shift_scheduling
% instance       = shift_scheduling_0
% source_json    = instances_json/0_low_blowup/shift_scheduling_0.json
% blowup         = 1.6896551724137931
% representation = DFA

mode = 0;

sequence_length = 14;
n_constraints = 2;
Q = 65;
S = 4;
q0 = [1, 1];
F = [{65}, {33}];
d_dfa = array3d(1..2, 1..65, 1..4, [
  % k = 1
    1, 2, 1, 1,
    3, 4, 3, 3,
    5, 6, 5, 5,
    7, 8, 7, 7,
    9, 10, 9, 9,
    11, 12, 11, 11,
    13, 14, 13, 13,
    15, 16, 15, 15,
    17, 18, 17, 17,
    19, 20, 19, 19,
    21, 22, 21, 21,
    23, 24, 23, 23,
    25, 26, 25, 25,
    27, 28, 27, 27,
    29, 30, 29, 29,
    31, 32, 31, 31,
    33, 34, 33, 33,
    35, 36, 35, 35,
    37, 38, 37, 37,
    39, 40, 39, 39,
    41, 42, 41, 41,
    43, 44, 43, 43,
    45, 46, 45, 45,
    47, 48, 47, 47,
    49, 50, 49, 49,
    51, 52, 51, 51,
    53, 54, 53, 53,
    55, 56, 55, 55,
    57, 58, 57, 57,
    59, 60, 59, 59,
    61, 62, 61, 61,
    63, 64, 63, 63,
    1, 2, 1, 65,
    3, 4, 3, 65,
    5, 6, 5, 65,
    7, 8, 7, 65,
    9, 10, 9, 65,
    11, 12, 11, 65,
    13, 14, 13, 65,
    15, 16, 15, 65,
    17, 18, 17, 65,
    19, 20, 19, 65,
    21, 22, 21, 65,
    23, 24, 23, 65,
    25, 26, 25, 65,
    27, 28, 27, 65,
    29, 30, 29, 65,
    31, 32, 31, 65,
    33, 34, 33, 65,
    35, 36, 35, 65,
    37, 38, 37, 65,
    39, 40, 39, 65,
    41, 42, 41, 65,
    43, 44, 43, 65,
    45, 46, 45, 65,
    47, 48, 47, 65,
    49, 50, 49, 65,
    51, 52, 51, 65,
    53, 54, 53, 65,
    55, 56, 55, 65,
    57, 58, 57, 65,
    59, 60, 59, 65,
    61, 62, 61, 65,
    63, 64, 63, 65,
    65, 65, 65, 65,

  % k = 2
    1, 1, 2, 1,
    3, 3, 4, 3,
    5, 5, 6, 5,
    7, 7, 8, 7,
    9, 9, 10, 9,
    11, 11, 12, 11,
    13, 13, 14, 13,
    15, 15, 16, 15,
    17, 17, 18, 17,
    19, 19, 20, 19,
    21, 21, 22, 21,
    23, 23, 24, 23,
    25, 25, 26, 25,
    27, 27, 28, 27,
    29, 29, 30, 29,
    31, 31, 32, 31,
    1, 1, 2, 33,
    3, 3, 4, 33,
    5, 5, 6, 33,
    7, 7, 8, 33,
    9, 9, 10, 33,
    11, 11, 12, 33,
    13, 13, 14, 33,
    15, 15, 16, 33,
    17, 17, 18, 33,
    19, 19, 20, 33,
    21, 21, 22, 33,
    23, 23, 24, 33,
    25, 25, 26, 33,
    27, 27, 28, 33,
    29, 29, 30, 33,
    31, 31, 32, 33,
    33, 33, 33, 33,
    0, 0, 0, 0,
    0, 0, 0, 0,
    0, 0, 0, 0,
    0, 0, 0, 0,
    0, 0, 0, 0,
    0, 0, 0, 0,
    0, 0, 0, 0,
    0, 0, 0, 0,
    0, 0, 0, 0,
    0, 0, 0, 0,
    0, 0, 0, 0,
    0, 0, 0, 0,
    0, 0, 0, 0,
    0, 0, 0, 0,
    0, 0, 0, 0,
    0, 0, 0, 0,
    0, 0, 0, 0,
    0, 0, 0, 0,
    0, 0, 0, 0,
    0, 0, 0, 0,
    0, 0, 0, 0,
    0, 0, 0, 0,
    0, 0, 0, 0,
    0, 0, 0, 0,
    0, 0, 0, 0,
    0, 0, 0, 0,
    0, 0, 0, 0,
    0, 0, 0, 0,
    0, 0, 0, 0,
    0, 0, 0, 0,
    0, 0, 0, 0,
    0, 0, 0, 0
]);
d_nfa = array3d(1..2, 1..65, 1..4, [
  % k = 1
    {}, {}, {}, {},
    {}, {}, {}, {},
    {}, {}, {}, {},
    {}, {}, {}, {},
    {}, {}, {}, {},
    {}, {}, {}, {},
    {}, {}, {}, {},
    {}, {}, {}, {},
    {}, {}, {}, {},
    {}, {}, {}, {},
    {}, {}, {}, {},
    {}, {}, {}, {},
    {}, {}, {}, {},
    {}, {}, {}, {},
    {}, {}, {}, {},
    {}, {}, {}, {},
    {}, {}, {}, {},
    {}, {}, {}, {},
    {}, {}, {}, {},
    {}, {}, {}, {},
    {}, {}, {}, {},
    {}, {}, {}, {},
    {}, {}, {}, {},
    {}, {}, {}, {},
    {}, {}, {}, {},
    {}, {}, {}, {},
    {}, {}, {}, {},
    {}, {}, {}, {},
    {}, {}, {}, {},
    {}, {}, {}, {},
    {}, {}, {}, {},
    {}, {}, {}, {},
    {}, {}, {}, {},
    {}, {}, {}, {},
    {}, {}, {}, {},
    {}, {}, {}, {},
    {}, {}, {}, {},
    {}, {}, {}, {},
    {}, {}, {}, {},
    {}, {}, {}, {},
    {}, {}, {}, {},
    {}, {}, {}, {},
    {}, {}, {}, {},
    {}, {}, {}, {},
    {}, {}, {}, {},
    {}, {}, {}, {},
    {}, {}, {}, {},
    {}, {}, {}, {},
    {}, {}, {}, {},
    {}, {}, {}, {},
    {}, {}, {}, {},
    {}, {}, {}, {},
    {}, {}, {}, {},
    {}, {}, {}, {},
    {}, {}, {}, {},
    {}, {}, {}, {},
    {}, {}, {}, {},
    {}, {}, {}, {},
    {}, {}, {}, {},
    {}, {}, {}, {},
    {}, {}, {}, {},
    {}, {}, {}, {},
    {}, {}, {}, {},
    {}, {}, {}, {},
    {}, {}, {}, {},

  % k = 2
    {}, {}, {}, {},
    {}, {}, {}, {},
    {}, {}, {}, {},
    {}, {}, {}, {},
    {}, {}, {}, {},
    {}, {}, {}, {},
    {}, {}, {}, {},
    {}, {}, {}, {},
    {}, {}, {}, {},
    {}, {}, {}, {},
    {}, {}, {}, {},
    {}, {}, {}, {},
    {}, {}, {}, {},
    {}, {}, {}, {},
    {}, {}, {}, {},
    {}, {}, {}, {},
    {}, {}, {}, {},
    {}, {}, {}, {},
    {}, {}, {}, {},
    {}, {}, {}, {},
    {}, {}, {}, {},
    {}, {}, {}, {},
    {}, {}, {}, {},
    {}, {}, {}, {},
    {}, {}, {}, {},
    {}, {}, {}, {},
    {}, {}, {}, {},
    {}, {}, {}, {},
    {}, {}, {}, {},
    {}, {}, {}, {},
    {}, {}, {}, {},
    {}, {}, {}, {},
    {}, {}, {}, {},
    {}, {}, {}, {},
    {}, {}, {}, {},
    {}, {}, {}, {},
    {}, {}, {}, {},
    {}, {}, {}, {},
    {}, {}, {}, {},
    {}, {}, {}, {},
    {}, {}, {}, {},
    {}, {}, {}, {},
    {}, {}, {}, {},
    {}, {}, {}, {},
    {}, {}, {}, {},
    {}, {}, {}, {},
    {}, {}, {}, {},
    {}, {}, {}, {},
    {}, {}, {}, {},
    {}, {}, {}, {},
    {}, {}, {}, {},
    {}, {}, {}, {},
    {}, {}, {}, {},
    {}, {}, {}, {},
    {}, {}, {}, {},
    {}, {}, {}, {},
    {}, {}, {}, {},
    {}, {}, {}, {},
    {}, {}, {}, {},
    {}, {}, {}, {},
    {}, {}, {}, {},
    {}, {}, {}, {},
    {}, {}, {}, {},
    {}, {}, {}, {},
    {}, {}, {}, {}
]);
